(declare-datatype Nat ((Z) (S (proj1-S Nat))))
(define-fun-rec
  <=2
  ((x Nat) (y Nat)) Bool
  (match x
    ((Z true)
     ((S z)
      (match y
        ((Z false)
         ((S x2) (<=2 z x2))))))))
(define-fun-rec
  +2
  ((x Nat) (y Nat)) Nat
  (match x
    ((Z y)
     ((S z) (S (+2 z y))))))
(assert (not (forall ((n Nat) (m Nat)) (<=2 n (+2 m n)))))
(check-sat)
